\ Model Transportation Problem with Environmental Impact Consideration
\ LP format - for model browsing. Use MPS format to capture full model detail.
Minimize
  121.01 x[0,0] + 43.39 x[0,1] + 115.09 x[0,2] + 129.82 x[0,3]
   + 110.87 x[0,4] + 136.09 x[1,0] + 140.62 x[1,1] + 94.94 x[1,2]
   + 74.3 x[1,3] + 78.9 x[1,4] + 39.71 x[2,0] + 71.93 x[2,1]
   + 102.19 x[2,2] + 106.87 x[2,3] + 83.04 x[2,4] + 124.52 x[3,0]
   + 127.88 x[3,1] + 84.7 x[3,2] + 75.22 x[3,3] + 92.87 x[3,4]
   + 145.03 x[4,0] + 133.91 x[4,1] + 109.71 x[4,2] + 25.43 x[4,3]
   + 100.74 x[4,4] + 71.8 x[5,0] + 27.43 x[5,1] + 54.37 x[5,2]
   + 84.29 x[5,3] + 36.82 x[5,4] + 75.85 x[6,0] + 156.68 x[6,1]
   + 141.34 x[6,2] + 82.7 x[6,3] + 118.79 x[6,4] + 8.85 x[7,0]
   + 112.49 x[7,1] + 150.46 x[7,2] + 79.75 x[7,3] + 52.9 x[7,4]
   + 113.2 x[8,0] + 115.97 x[8,1] + 109 x[8,2] + 95.1 x[8,3]
   + 105.76 x[8,4] + 39.1 x[9,0] + 112.04 x[9,1] + 185.22 x[9,2]
   + 38.04 x[9,3] + 155.29 x[9,4]
Subject To
 collection_point_0: x[0,0] + x[0,1] + x[0,2] + x[0,3] + x[0,4] <= 9219.07
 collection_point_1: x[1,0] + x[1,1] + x[1,2] + x[1,3] + x[1,4] <= 2575.58
 collection_point_2: x[2,0] + x[2,1] + x[2,2] + x[2,3] + x[2,4] <= 8940.2
 collection_point_3: x[3,0] + x[3,1] + x[3,2] + x[3,3] + x[3,4] <= 2582.1
 collection_point_4: x[4,0] + x[4,1] + x[4,2] + x[4,3] + x[4,4] <= 9276.71
 collection_point_5: x[5,0] + x[5,1] + x[5,2] + x[5,3] + x[5,4] <= 9974.55
 collection_point_6: x[6,0] + x[6,1] + x[6,2] + x[6,3] + x[6,4] <= 4572.95
 collection_point_7: x[7,0] + x[7,1] + x[7,2] + x[7,3] + x[7,4] <= 5458.46
 collection_point_8: x[8,0] + x[8,1] + x[8,2] + x[8,3] + x[8,4] <= 9429.48
 collection_point_9: x[9,0] + x[9,1] + x[9,2] + x[9,3] + x[9,4] <= 9659.18
 facility_0: x[0,0] + x[1,0] + x[2,0] + x[3,0] + x[4,0] + x[5,0] + x[6,0]
   + x[7,0] + x[8,0] + x[9,0] <= 9334.36
 facility_1: x[0,1] + x[1,1] + x[2,1] + x[3,1] + x[4,1] + x[5,1] + x[6,1]
   + x[7,1] + x[8,1] + x[9,1] <= 8890.69
 facility_2: x[0,2] + x[1,2] + x[2,2] + x[3,2] + x[4,2] + x[5,2] + x[6,2]
   + x[7,2] + x[8,2] + x[9,2] <= 1083.4
 facility_3: x[0,3] + x[1,3] + x[2,3] + x[3,3] + x[4,3] + x[5,3] + x[6,3]
   + x[7,3] + x[8,3] + x[9,3] <= 6111.66
 facility_4: x[0,4] + x[1,4] + x[2,4] + x[3,4] + x[4,4] + x[5,4] + x[6,4]
   + x[7,4] + x[8,4] + x[9,4] <= 1965.71
Bounds
End
